NAME : portcgen-27-9
COMMENT : portcgen N=27, seed=9
TYPE : TSP
DIMENSION : 27
EDGE_WEIGHT_TYPE : EUC_2D
NODE_COORD_SECTION
1 -5971 230539
2 304847 119140
3 -219494 154731
4 58408 -72583
5 -38235 -109981
6 69523 -44545
7 -157387 131791
8 -109967 -36152
9 138611 5257
10 -109454 79990
11 42727 192339
12 -53323 280073
13 280617 -77511
14 -34893 24944
15 443406 20612
16 -214244 183260
17 -90004 508485
18 -96624 5159
19 -169924 250004
20 259208 6251
21 72394 24962
22 85835 -72318
23 111613 -96477
24 78107 -95511
25 -72100 317852
26 -166326 -212008
27 2568 -13467
